NAME          DCAP_2_3_3_500_SS216
ROWS
 N  OBJ
 L  CON1
 L  CON2
 L  CON3
 L  CON4
 L  CON5
 L  CON6
 L  CON7
 L  CON8
 L  CON9
 L  CON10
 L  CON11
 L  CON12
 E  CON13
 E  CON14
 E  CON15
 E  CON16
 E  CON17
 E  CON18
 E  CON19
 E  CON20
 E  CON21
COLUMNS
    x[1,1]    OBJ       6.180167      CON1      1.000000    
    x[1,1]    CON7      -1.000000     CON8      -1.000000   
    x[1,1]    CON9      -1.000000   
    x[1,2]    OBJ       6.563535      CON2      1.000000    
    x[1,2]    CON8      -1.000000     CON9      -1.000000   
    x[1,3]    OBJ       7.443064      CON3      1.000000    
    x[1,3]    CON9      -1.000000   
    x[2,1]    OBJ       6.732585      CON4      1.000000    
    x[2,1]    CON10     -1.000000     CON11     -1.000000   
    x[2,1]    CON12     -1.000000   
    x[2,2]    OBJ       5.039546      CON5      1.000000    
    x[2,2]    CON11     -1.000000     CON12     -1.000000   
    x[2,3]    OBJ       6.054841      CON6      1.000000    
    x[2,3]    CON12     -1.000000   
    MARKER    'MARKER'                'INTORG'
    u[1,1]    OBJ       48.076654     CON1      -1.000000   
    u[1,2]    OBJ       20.066487     CON2      -1.000000   
    u[1,3]    OBJ       32.230043     CON3      -1.000000   
    u[2,1]    OBJ       49.996186     CON4      -1.000000   
    u[2,2]    OBJ       49.466655     CON5      -1.000000   
    u[2,3]    OBJ       27.484319     CON6      -1.000000   
    y[1,1,1]  OBJ       9.632034      CON7      1.482738    
    y[1,1,1]  CON13     1.000000    
    y[1,1,2]  OBJ       9.243377      CON8      1.443061    
    y[1,1,2]  CON14     1.000000    
    y[1,1,3]  OBJ       9.349634      CON9      0.660218    
    y[1,1,3]  CON15     1.000000    
    y[1,2,1]  OBJ       6.642046      CON7      1.001073    
    y[1,2,1]  CON16     1.000000    
    y[1,2,2]  OBJ       7.991868      CON8      0.846647    
    y[1,2,2]  CON17     1.000000    
    y[1,2,3]  OBJ       6.476460      CON9      0.714741    
    y[1,2,3]  CON18     1.000000    
    y[1,3,1]  OBJ       8.445189      CON7      1.318159    
    y[1,3,1]  CON19     1.000000    
    y[1,3,2]  OBJ       8.123622      CON8      1.337788    
    y[1,3,2]  CON20     1.000000    
    y[1,3,3]  OBJ       6.117983      CON9      1.096825    
    y[1,3,3]  CON21     1.000000    
    y[2,1,1]  OBJ       6.180255      CON10     1.482738    
    y[2,1,1]  CON13     1.000000    
    y[2,1,2]  OBJ       7.010308      CON11     1.443061    
    y[2,1,2]  CON14     1.000000    
    y[2,1,3]  OBJ       6.539420      CON12     0.660218    
    y[2,1,3]  CON15     1.000000    
    y[2,2,1]  OBJ       6.933407      CON10     1.001073    
    y[2,2,1]  CON16     1.000000    
    y[2,2,2]  OBJ       5.877099      CON11     0.846647    
    y[2,2,2]  CON17     1.000000    
    y[2,2,3]  OBJ       8.012591      CON12     0.714741    
    y[2,2,3]  CON18     1.000000    
    y[2,3,1]  OBJ       5.357056      CON10     1.318159    
    y[2,3,1]  CON19     1.000000    
    y[2,3,2]  OBJ       6.211425      CON11     1.337788    
    y[2,3,2]  CON20     1.000000    
    y[2,3,3]  OBJ       7.330984      CON12     1.096825    
    y[2,3,3]  CON21     1.000000    
    z[1,1]    OBJ       588.686019    CON13     1.000000    
    z[1,2]    OBJ       891.610314    CON14     1.000000    
    z[1,3]    OBJ       618.299175    CON15     1.000000    
    z[2,1]    OBJ       902.799675    CON16     1.000000    
    z[2,2]    OBJ       938.862906    CON17     1.000000    
    z[2,3]    OBJ       531.610702    CON18     1.000000    
    z[3,1]    OBJ       912.543929    CON19     1.000000    
    z[3,2]    OBJ       780.861079    CON20     1.000000    
    z[3,3]    OBJ       696.514826    CON21     1.000000    
    MARKER    'MARKER'                 'INTEND'
RHS
    RHS       CON1      -0.000000     CON2      -0.000000   
    RHS       CON3      -0.000000     CON4      -0.000000   
    RHS       CON5      -0.000000     CON6      -0.000000   
    RHS       CON7      -0.000000     CON8      -0.000000   
    RHS       CON9      -0.000000     CON10     -0.000000   
    RHS       CON11     -0.000000     CON12     -0.000000   
    RHS       CON13     1.000000      CON14     1.000000    
    RHS       CON15     1.000000      CON16     1.000000    
    RHS       CON17     1.000000      CON18     1.000000    
    RHS       CON19     1.000000      CON20     1.000000    
    RHS       CON21     1.000000    
BOUNDS
 BV BOUND     u[1,1]  
 BV BOUND     u[1,2]  
 BV BOUND     u[1,3]  
 BV BOUND     u[2,1]  
 BV BOUND     u[2,2]  
 BV BOUND     u[2,3]  
 BV BOUND     y[1,1,1]
 BV BOUND     y[1,1,2]
 BV BOUND     y[1,1,3]
 BV BOUND     y[1,2,1]
 BV BOUND     y[1,2,2]
 BV BOUND     y[1,2,3]
 BV BOUND     y[1,3,1]
 BV BOUND     y[1,3,2]
 BV BOUND     y[1,3,3]
 BV BOUND     y[2,1,1]
 BV BOUND     y[2,1,2]
 BV BOUND     y[2,1,3]
 BV BOUND     y[2,2,1]
 BV BOUND     y[2,2,2]
 BV BOUND     y[2,2,3]
 BV BOUND     y[2,3,1]
 BV BOUND     y[2,3,2]
 BV BOUND     y[2,3,3]
 BV BOUND     z[1,1]  
 BV BOUND     z[1,2]  
 BV BOUND     z[1,3]  
 BV BOUND     z[2,1]  
 BV BOUND     z[2,2]  
 BV BOUND     z[2,3]  
 BV BOUND     z[3,1]  
 BV BOUND     z[3,2]  
 BV BOUND     z[3,3]  
ENDATA
